============================[ Problem Statistics ]=============================|                                                                             ||  Number of variables:          4242                                         ||  Number of clauses:            9740                                         ||  Parse time:                   0.15 s                                       ||                                                                             |============================[ Search Statistics ]==============================| Conflicts |          ORIGINAL         |          LEARNT          | Progress ||           |    Vars  Clauses Literals |    Limit  Clauses Lit/Cl |          |==============================================================================================================================================================restarts              : 1conflicts             : 87             (362 /sec)decisions             : 171            (0.00 % random) (712 /sec)propagations          : 8229           (34288 /sec)conflict literals     : 4481           (95.97 % deleted)CPU time              : 0.24 sSATISFIABLE